webassembly/ejemplos_dzn/8/folder8_json_36.dzn
TERM = { '.', 's(2)', 'local_0', 'local_1', 's(1)', 's(0)', 'in_0'};
null = '.';
s = 8;
n = 8;
ndeps = 3;
max_registers_sz = 4;
NR = 1;
registers = [|'local_0', 's(2)'|];
dependencies = [|'i32.load_2', 'i32.store16_4', |'i32.store16_4', 'i32.load16_s_5', |'i32.store16_4', 'i32.load16_u_6'|];
GET_ENUM = { GET1, GET2, GET3, GET4, GET5};
SET_ENUM = { SET1, SET2, SET3, SET4, SET5};
TEE_ENUM = { TEE1, TEE2, TEE3, TEE4, TEE5};
N = 5;
OP = { 'i32.load_2', 'i32.store16_4', 'i32.load16_s_5', 'i32.load16_u_6', 'local.get_0' };
in_ops = [1, 2, 1, 1, 0 ];
out_ops = [1, 0, 1, 1, 1 ];
in1 = ['local_1', 'local_0', 'in_0', 's(1)', '.' ];
in2 = ['.', 's(0)', '.', '.', '.' ];
in3 = ['.', '.', '.', '.', '.' ];
out1 = ['s(0)', '.', 's(1)', 's(2)', 'local_1' ];
out2 = ['.', '.', '.', '.', '.' ];
out3 = ['.', '.', '.', '.', '.' ];
comm = [false, false, false, false, false ];
gas = [1, 1, 1, 1, 1 ];
sz = [1, 1, 1, 1, 1 ];
stor = [false, true, false, false, false ];
lb = [ 1, 1, 1, 1, 1 ];
ub = [ 8, 8, 8, 8, 8 ];
startstack = [ 'in_0', null, null, null, null, null, null, null ];
endstack = [ 's(2)', null, null, null, null, null, null, null ];
